certificates/rado_a6_c296_N49.cnf
c Rad2 upper bound instance: x1 + 6*x2 - x3 = 296, interval [1,49]
p cnf 49 416
1 3 49 0
-1 -3 -49 0
2 4 49 0
-2 -4 -49 0
3 5 49 0
-3 -5 -49 0
4 6 49 0
-4 -6 -49 0
5 7 49 0
-5 -7 -49 0
6 8 49 0
-6 -8 -49 0
1 9 48 0
-1 -9 -48 0
7 9 49 0
-7 -9 -49 0
2 10 48 0
-2 -10 -48 0
8 10 49 0
-8 -10 -49 0
3 11 48 0
-3 -11 -48 0
9 11 49 0
-9 -11 -49 0
4 12 48 0
-4 -12 -48 0
10 12 49 0
-10 -12 -49 0
5 13 48 0
-5 -13 -48 0
11 13 49 0
-11 -13 -49 0
6 14 48 0
-6 -14 -48 0
12 14 49 0
-12 -14 -49 0
1 15 47 0
-1 -15 -47 0
7 15 48 0
-7 -15 -48 0
13 15 49 0
-13 -15 -49 0
2 16 47 0
-2 -16 -47 0
8 16 48 0
-8 -16 -48 0
14 16 49 0
-14 -16 -49 0
3 17 47 0
-3 -17 -47 0
9 17 48 0
-9 -17 -48 0
15 17 49 0
-15 -17 -49 0
4 18 47 0
-4 -18 -47 0
10 18 48 0
-10 -18 -48 0
16 18 49 0
-16 -18 -49 0
5 19 47 0
-5 -19 -47 0
11 19 48 0
-11 -19 -48 0
17 19 49 0
-17 -19 -49 0
6 20 47 0
-6 -20 -47 0
12 20 48 0
-12 -20 -48 0
18 20 49 0
-18 -20 -49 0
1 21 46 0
-1 -21 -46 0
7 21 47 0
-7 -21 -47 0
13 21 48 0
-13 -21 -48 0
19 21 49 0
-19 -21 -49 0
2 22 46 0
-2 -22 -46 0
8 22 47 0
-8 -22 -47 0
14 22 48 0
-14 -22 -48 0
20 22 49 0
-20 -22 -49 0
3 23 46 0
-3 -23 -46 0
9 23 47 0
-9 -23 -47 0
15 23 48 0
-15 -23 -48 0
21 23 49 0
-21 -23 -49 0
4 24 46 0
-4 -24 -46 0
10 24 47 0
-10 -24 -47 0
16 24 48 0
-16 -24 -48 0
22 24 49 0
-22 -24 -49 0
5 25 46 0
-5 -25 -46 0
11 25 47 0
-11 -25 -47 0
17 25 48 0
-17 -25 -48 0
23 25 49 0
-23 -25 -49 0
6 26 46 0
-6 -26 -46 0
12 26 47 0
-12 -26 -47 0
18 26 48 0
-18 -26 -48 0
24 26 49 0
-24 -26 -49 0
1 27 45 0
-1 -27 -45 0
7 27 46 0
-7 -27 -46 0
13 27 47 0
-13 -27 -47 0
19 27 48 0
-19 -27 -48 0
25 27 49 0
-25 -27 -49 0
2 28 45 0
-2 -28 -45 0
8 28 46 0
-8 -28 -46 0
14 28 47 0
-14 -28 -47 0
20 28 48 0
-20 -28 -48 0
26 28 49 0
-26 -28 -49 0
3 29 45 0
-3 -29 -45 0
9 29 46 0
-9 -29 -46 0
15 29 47 0
-15 -29 -47 0
21 29 48 0
-21 -29 -48 0
27 29 49 0
-27 -29 -49 0
4 30 45 0
-4 -30 -45 0
10 30 46 0
-10 -30 -46 0
16 30 47 0
-16 -30 -47 0
22 30 48 0
-22 -30 -48 0
28 30 49 0
-28 -30 -49 0
5 31 45 0
-5 -31 -45 0
11 31 46 0
-11 -31 -46 0
17 31 47 0
-17 -31 -47 0
23 31 48 0
-23 -31 -48 0
29 31 49 0
-29 -31 -49 0
6 32 45 0
-6 -32 -45 0
12 32 46 0
-12 -32 -46 0
18 32 47 0
-18 -32 -47 0
24 32 48 0
-24 -32 -48 0
30 32 49 0
-30 -32 -49 0
1 33 44 0
-1 -33 -44 0
7 33 45 0
-7 -33 -45 0
13 33 46 0
-13 -33 -46 0
19 33 47 0
-19 -33 -47 0
25 33 48 0
-25 -33 -48 0
31 33 49 0
-31 -33 -49 0
2 34 44 0
-2 -34 -44 0
8 34 45 0
-8 -34 -45 0
14 34 46 0
-14 -34 -46 0
20 34 47 0
-20 -34 -47 0
26 34 48 0
-26 -34 -48 0
32 34 49 0
-32 -34 -49 0
3 35 44 0
-3 -35 -44 0
9 35 45 0
-9 -35 -45 0
15 35 46 0
-15 -35 -46 0
21 35 47 0
-21 -35 -47 0
27 35 48 0
-27 -35 -48 0
33 35 49 0
-33 -35 -49 0
4 36 44 0
-4 -36 -44 0
10 36 45 0
-10 -36 -45 0
16 36 46 0
-16 -36 -46 0
22 36 47 0
-22 -36 -47 0
28 36 48 0
-28 -36 -48 0
34 36 49 0
-34 -36 -49 0
5 37 44 0
-5 -37 -44 0
11 37 45 0
-11 -37 -45 0
17 37 46 0
-17 -37 -46 0
23 37 47 0
-23 -37 -47 0
29 37 48 0
-29 -37 -48 0
35 37 49 0
-35 -37 -49 0
6 38 44 0
-6 -38 -44 0
12 38 45 0
-12 -38 -45 0
18 38 46 0
-18 -38 -46 0
24 38 47 0
-24 -38 -47 0
30 38 48 0
-30 -38 -48 0
36 38 49 0
-36 -38 -49 0
1 39 43 0
-1 -39 -43 0
7 39 44 0
-7 -39 -44 0
13 39 45 0
-13 -39 -45 0
19 39 46 0
-19 -39 -46 0
25 39 47 0
-25 -39 -47 0
31 39 48 0
-31 -39 -48 0
37 39 49 0
-37 -39 -49 0
2 40 43 0
-2 -40 -43 0
8 40 44 0
-8 -40 -44 0
14 40 45 0
-14 -40 -45 0
20 40 46 0
-20 -40 -46 0
26 40 47 0
-26 -40 -47 0
32 40 48 0
-32 -40 -48 0
38 40 49 0
-38 -40 -49 0
3 41 43 0
-3 -41 -43 0
9 41 44 0
-9 -41 -44 0
15 41 45 0
-15 -41 -45 0
21 41 46 0
-21 -41 -46 0
27 41 47 0
-27 -41 -47 0
33 41 48 0
-33 -41 -48 0
39 41 49 0
-39 -41 -49 0
4 42 43 0
-4 -42 -43 0
10 42 44 0
-10 -42 -44 0
16 42 45 0
-16 -42 -45 0
22 42 46 0
-22 -42 -46 0
28 42 47 0
-28 -42 -47 0
34 42 48 0
-34 -42 -48 0
40 42 49 0
-40 -42 -49 0
5 43 0
-5 -43 0
11 43 44 0
-11 -43 -44 0
17 43 45 0
-17 -43 -45 0
23 43 46 0
-23 -43 -46 0
29 43 47 0
-29 -43 -47 0
35 43 48 0
-35 -43 -48 0
41 43 49 0
-41 -43 -49 0
6 43 44 0
-6 -43 -44 0
12 44 0
-12 -44 0
18 44 45 0
-18 -44 -45 0
24 44 46 0
-24 -44 -46 0
30 44 47 0
-30 -44 -47 0
36 44 48 0
-36 -44 -48 0
42 44 49 0
-42 -44 -49 0
1 42 45 0
-1 -42 -45 0
7 43 45 0
-7 -43 -45 0
13 44 45 0
-13 -44 -45 0
19 45 0
-19 -45 0
25 45 46 0
-25 -45 -46 0
31 45 47 0
-31 -45 -47 0
37 45 48 0
-37 -45 -48 0
43 45 49 0
-43 -45 -49 0
2 42 46 0
-2 -42 -46 0
8 43 46 0
-8 -43 -46 0
14 44 46 0
-14 -44 -46 0
20 45 46 0
-20 -45 -46 0
26 46 0
-26 -46 0
32 46 47 0
-32 -46 -47 0
38 46 48 0
-38 -46 -48 0
44 46 49 0
-44 -46 -49 0
3 42 47 0
-3 -42 -47 0
9 43 47 0
-9 -43 -47 0
15 44 47 0
-15 -44 -47 0
21 45 47 0
-21 -45 -47 0
27 46 47 0
-27 -46 -47 0
33 47 0
-33 -47 0
39 47 48 0
-39 -47 -48 0
45 47 49 0
-45 -47 -49 0
4 42 48 0
-4 -42 -48 0
10 43 48 0
-10 -43 -48 0
16 44 48 0
-16 -44 -48 0
22 45 48 0
-22 -45 -48 0
28 46 48 0
-28 -46 -48 0
34 47 48 0
-34 -47 -48 0
40 48 0
-40 -48 0
46 48 49 0
-46 -48 -49 0
5 42 49 0
-5 -42 -49 0
11 43 49 0
-11 -43 -49 0
17 44 49 0
-17 -44 -49 0
23 45 49 0
-23 -45 -49 0
29 46 49 0
-29 -46 -49 0
35 47 49 0
-35 -47 -49 0
41 48 49 0
-41 -48 -49 0
47 49 0
-47 -49 0
