certificates/rado_a6_c296_N49.drat
-49 0
47 0
-33 0
31 0
35 0
-17 0
-45 0
-21 0
15 0
19 0
43 0
44 0
23 0
7 0
-1 0
-29 0
-46 0
0
